SCIP version 0.82 [precision: 8 byte] [memory: block] [mode: optimized] [LP solver: SOPLEX 1.3.0]
Copyright (c) 2002-2006 Konrad-Zuse-Zentrum fuer Informationstechnik Berlin (ZIB)

reading parameter file <scip.set>

read problem </ufs/psxjm3/instances/random_3.ctt.t.zpl>
============

****************************************************
* Zuse Institute Mathematical Programming Language *
* Release 2.04  Copyright (C)2005 by Thorsten Koch *
****************************************************

original problem has 5242 variables (5210 bin, 32 int, 0 impl, 0 cont) and 3086 constraints

solve problem
=============

LP Solver <SOPLEX 1.3.0>: dual feasibility tolerance cannot be set -- tolerance of SCIP and LP solver may differ
LP Solver <SOPLEX 1.3.0>: barrier convergence tolerance cannot be set -- tolerance of SCIP and LP solver may differ
LP Solver <SOPLEX 1.3.0>: fastmip setting not available -- SCIP parameter has no effect
LP Solver <SOPLEX 1.3.0>: scaling not available -- SCIP parameter has no effect
LP Solver <SOPLEX 1.3.0>: presolving not available -- SCIP parameter has no effect
transformed problem has 5242 variables (5210 bin, 32 int, 0 impl, 0 cont) and 3086 constraints
   3086 constraints of type <linear>

presolving:
(round 1) 689 del vars, 151 del conss, 689 chg bounds, 0 chg sides, 0 chg coeffs, 0 upgd conss, 0 impls, 1941 clqs
(round 2) 689 del vars, 285 del conss, 689 chg bounds, 0 chg sides, 0 chg coeffs, 0 upgd conss, 0 impls, 1941 clqs
(round 3) 689 del vars, 1222 del conss, 689 chg bounds, 936 chg sides, 0 chg coeffs, 0 upgd conss, 0 impls, 1941 clqs
(round 4) 690 del vars, 1222 del conss, 689 chg bounds, 936 chg sides, 0 chg coeffs, 1669 upgd conss, 0 impls, 1941 clqs
(round 5) 690 del vars, 1247 del conss, 689 chg bounds, 936 chg sides, 0 chg coeffs, 1669 upgd conss, 0 impls, 1941 clqs
   (1.1s) probing: 100/4521 (2.2%) - 0 fixings, 0 aggregations, 6 implications, 0 bound changes
   (1.5s) probing: 200/4521 (4.4%) - 0 fixings, 0 aggregations, 12 implications, 0 bound changes
   (2.0s) probing: 300/4521 (6.6%) - 0 fixings, 0 aggregations, 18 implications, 0 bound changes
presolving (6 rounds):
 690 deleted vars, 1247 deleted constraints, 689 tightened bounds, 0 added holes, 936 changed sides, 0 changed coefficients
 36 implications, 1941 cliques
presolved problem has 4552 variables (4521 bin, 31 int, 0 impl, 0 cont) and 1839 constraints
    250 constraints of type <knapsack>
   1248 constraints of type <setppc>
    195 constraints of type <linear>
    146 constraints of type <logicor>
objective value is always integral
Presolving Time: 2.11

 time | node  | left  |LP iter| mem |mdpt |frac |vars |cons |ccons|cols |rows |cuts |confs|strbr|  dualbound   | primalbound  |  gap   
  4.7s|     1 |     0 |  3688 |  21M|   0 | 289 |4552 |1839 |1839 |4552 |1839 |   0 |   0 |   0 | 6.391000e+03 |      --      |    Inf 
  5.3s|     1 |     0 |  4062 |  22M|   0 | 290 |4552 |1839 |1839 |4552 |1845 |   6 |   0 |   0 | 6.391000e+03 |      --      |    Inf 
  5.5s|     1 |     0 |  4143 |  22M|   0 | 327 |4552 |1839 |1839 |4552 |1849 |  10 |   0 |   0 | 6.391000e+03 |      --      |    Inf 
  5.7s|     1 |     0 |  4153 |  22M|   0 | 326 |4552 |1839 |1839 |4552 |1852 |  13 |   0 |   0 | 6.391000e+03 |      --      |    Inf 
  5.9s|     1 |     0 |  4170 |  22M|   0 | 332 |4552 |1839 |1839 |4552 |1857 |  18 |   0 |   0 | 6.391000e+03 |      --      |    Inf 
  6.1s|     1 |     0 |  4176 |  22M|   0 | 337 |4552 |1839 |1839 |4552 |1858 |  19 |   0 |   0 | 6.391000e+03 |      --      |    Inf 
 30.9s|     1 |     2 | 14253 |  22M|   0 | 337 |4552 |1839 |1839 |4552 |1858 |  19 |   0 |  33 | 6.391000e+03 |      --      |    Inf 
p 180s|    87 |    88 | 30454 |  23M|  71 |   - |4552 |1839 |1063 |4552 |1856 |  19 |   0 | 272 | 6.391000e+03 | 6.401000e+03 |   0.16%
  185s|   100 |   101 | 32497 |  23M|  71 | 350 |4552 |1839 |1763 |4552 |1856 |  19 |   0 | 286 | 6.391000e+03 | 6.401000e+03 |   0.16%
  213s|   200 |   193 | 48532 |  23M|  81 | 210 |4552 |1839 |1569 |4552 |1856 |  19 |   0 | 329 | 6.391000e+03 | 6.401000e+03 |   0.16%
  253s|   300 |   293 | 79153 |  24M|  81 | 257 |4552 |1839 |1624 |4552 |1856 |  19 |   0 | 357 | 6.391000e+03 | 6.401000e+03 |   0.16%
  282s|   400 |   393 | 97757 |  24M|  81 |  88 |4552 |1839 |1241 |4552 |1856 |  19 |   0 | 399 | 6.391000e+03 | 6.401000e+03 |   0.16%
g 283s|   403 |   389 | 98720 |  24M|  81 |   - |4552 |1839 | 867 |4552 |1856 |  19 |   0 | 399 | 6.391000e+03 | 6.399000e+03 |   0.13%
c 303s|   452 |   345 |111293 |  24M|  81 |   - |4552 |1839 |1252 |4552 |1856 |  19 |   0 | 427 | 6.391000e+03 | 6.395000e+03 |   0.06%
  328s|   500 |   393 |126452 |  24M|  81 | 233 |4552 |1839 |1486 |4552 |1856 |  19 |   0 | 441 | 6.391000e+03 | 6.395000e+03 |   0.06%
 time | node  | left  |LP iter| mem |mdpt |frac |vars |cons |ccons|cols |rows |cuts |confs|strbr|  dualbound   | primalbound  |  gap   
  365s|   600 |   489 |149399 |  25M|  81 | 230 |4552 |1839 |1558 |4552 |1856 |  19 |   0 | 495 | 6.391000e+03 | 6.395000e+03 |   0.06%
  392s|   700 |   573 |170101 |  25M|  81 | 225 |4552 |1839 |1344 |4552 |1856 |  19 |   0 | 536 | 6.391000e+03 | 6.395000e+03 |   0.06%
  421s|   800 |   661 |192335 |  25M|  81 |   - |4552 |1839 |1231 |4552 |1856 |  19 |   0 | 575 | 6.391000e+03 | 6.395000e+03 |   0.06%
  449s|   900 |   751 |213306 |  26M|  81 | 251 |4552 |1839 |1392 |4552 |1856 |  19 |   0 | 614 | 6.391000e+03 | 6.395000e+03 |   0.06%
  489s|  1000 |   845 |241945 |  26M|  81 |   4 |4552 |1839 | 902 |4552 |1856 |  19 |   0 | 669 | 6.391000e+03 | 6.395000e+03 |   0.06%
  523s|  1100 |   931 |264956 |  27M|  81 | 180 |4552 |1839 |1302 |4552 |1856 |  19 |   0 | 719 | 6.391000e+03 | 6.395000e+03 |   0.06%
o 529s|  1112 |   943 |270140 |  27M|  81 |   0 |4552 |1839 | 965 |4552 |1856 |  19 |   0 | 719 | 6.391000e+03 | 6.393000e+03 |   0.03%
  561s|  1200 |   773 |288882 |  26M|  81 | 162 |4552 |1839 |1133 |4552 |1856 |  19 |   0 | 769 | 6.391000e+03 | 6.393000e+03 |   0.03%
* 562s|  1229 |     0 |290639 |  23M|  81 |   - |4552 |1839 | 702 |4552 |1856 |  19 |   0 | 769 | 6.391000e+03 | 6.391000e+03 |   0.00%

SCIP Status        : problem is solved [optimal solution found]
Solving Time (sec) : 561.76
Solving Nodes      : 1229
Primal Bound       : +6.39100000000000e+03 (8 solutions)
Dual Bound         : +6.39100000000000e+03
Gap                : 0.00 %

primal solution:
================

objective value:                                 6391
Taught#1#1#9                                        1 	(obj:0)
Taught#1#3#23                                       1 	(obj:0)
Taught#1#5#6                                        1 	(obj:60)
Taught#1#6#20                                       1 	(obj:9)
Taught#2#3#17                                       1 	(obj:43)
Taught#2#4#7                                        1 	(obj:12)
Taught#2#5#12                                       1 	(obj:1)
Taught#2#6#4                                        1 	(obj:34)
Taught#3#3#6                                        1 	(obj:105)
Taught#3#4#25                                       1 	(obj:69)
Taught#3#5#13                                       1 	(obj:154)
Taught#3#6#21                                       1 	(obj:140)
Taught#4#3#16                                       1 	(obj:139)
Taught#4#4#17                                       1 	(obj:43)
Taught#4#5#32                                       1 	(obj:114)
Taught#4#6#29                                       1 	(obj:51)
Taught#5#1#23                                       1 	(obj:0)
Taught#5#2#22                                       1 	(obj:0)
Taught#5#3#31                                       1 	(obj:258)
Taught#5#4#9                                        1 	(obj:0)
Taught#5#5#13                                       1 	(obj:154)
Taught#5#6#16                                       1 	(obj:24)
Taught#6#3#7                                        1 	(obj:12)
Taught#6#5#25                                       1 	(obj:24)
Taught#6#6#28                                       1 	(obj:132)
Taught#7#1#9                                        1 	(obj:0)
Taught#7#2#22                                       1 	(obj:0)
Taught#7#3#1                                        1 	(obj:42)
Taught#7#4#31                                       1 	(obj:258)
Taught#7#5#29                                       1 	(obj:121)
Taught#7#6#19                                       1 	(obj:1)
Taught#8#4#3                                        1 	(obj:0)
Taught#8#5#30                                       1 	(obj:48)
Taught#8#6#2                                        1 	(obj:133)
Taught#9#5#30                                       1 	(obj:48)
Taught#9#6#21                                       1 	(obj:140)
Taught#10#4#7                                       1 	(obj:12)
Taught#10#5#20                                      1 	(obj:79)
Taught#10#6#28                                      1 	(obj:132)
Taught#11#3#12                                      1 	(obj:46)
Taught#11#4#14                                      1 	(obj:30)
Taught#11#5#4                                       1 	(obj:104)
Taught#11#6#11                                      1 	(obj:38)
Taught#12#1#22                                      1 	(obj:0)
Taught#12#3#8                                       1 	(obj:12)
Taught#12#4#12                                      1 	(obj:46)
Taught#12#5#27                                      1 	(obj:121)
Taught#12#6#5                                       1 	(obj:59)
Taught#13#1#15                                      1 	(obj:0)
Taught#13#3#18                                      1 	(obj:43)
Taught#13#4#8                                       1 	(obj:12)
Taught#13#5#10                                      1 	(obj:187)
Taught#13#6#4                                       1 	(obj:34)
Taught#14#3#18                                      1 	(obj:43)
Taught#14#4#14                                      1 	(obj:30)
Taught#14#5#31                                      1 	(obj:213)
Taught#14#6#27                                      1 	(obj:51)
Taught#15#3#26                                      1 	(obj:19)
Taught#15#5#6                                       1 	(obj:60)
Taught#15#6#10                                      1 	(obj:117)
Taught#16#3#14                                      1 	(obj:30)
Taught#16#4#24                                      1 	(obj:84)
Taught#16#5#12                                      1 	(obj:1)
Taught#16#6#16                                      1 	(obj:24)
Taught#17#3#18                                      1 	(obj:43)
Taught#17#4#2                                       1 	(obj:248)
Taught#17#5#24                                      1 	(obj:39)
Taught#17#6#21                                      1 	(obj:140)
Taught#18#4#1                                       1 	(obj:42)
Taught#18#5#28                                      1 	(obj:202)
Taught#18#6#2                                       1 	(obj:133)
Taught#19#2#9                                       1 	(obj:0)
Taught#19#3#15                                      1 	(obj:0)
Taught#19#4#30                                      1 	(obj:93)
Taught#19#5#25                                      1 	(obj:24)
Taught#19#6#11                                      1 	(obj:38)
Taught#20#3#26                                      1 	(obj:19)
Taught#20#4#17                                      1 	(obj:43)
Taught#20#5#11                                      1 	(obj:108)
Taught#20#6#29                                      1 	(obj:51)
Taught#21#3#18                                      1 	(obj:43)
Taught#21#5#29                                      1 	(obj:121)
Taught#21#6#28                                      1 	(obj:132)
Taught#22#1#15                                      1 	(obj:0)
Taught#22#2#23                                      1 	(obj:0)
Taught#22#3#5                                       1 	(obj:174)
Taught#22#4#1                                       1 	(obj:42)
Taught#22#5#6                                       1 	(obj:60)
Taught#22#6#20                                      1 	(obj:9)
Taught#23#1#3                                       1 	(obj:0)
Taught#23#2#15                                      1 	(obj:0)
Taught#23#4#1                                       1 	(obj:42)
Taught#23#5#30                                      1 	(obj:48)
Taught#23#6#16                                      1 	(obj:24)
Taught#24#3#5                                       1 	(obj:174)
Taught#24#4#17                                      1 	(obj:43)
Taught#24#5#19                                      1 	(obj:71)
Taught#24#6#4                                       1 	(obj:34)
Taught#25#5#13                                      1 	(obj:154)
Taught#25#6#19                                      1 	(obj:1)
CourseSchedule#1#2                                  1 	(obj:0)
CourseSchedule#1#4                                  1 	(obj:0)
CourseSchedule#1#5                                  1 	(obj:0)
CourseSchedule#2#2                                  1 	(obj:0)
CourseSchedule#2#4                                  1 	(obj:0)
CourseSchedule#3#2                                  1 	(obj:0)
CourseSchedule#3#5                                  1 	(obj:0)
CourseSchedule#4#1                                  1 	(obj:0)
CourseSchedule#4#3                                  1 	(obj:0)
CourseSchedule#4#5                                  1 	(obj:0)
CourseSchedule#5#3                                  1 	(obj:0)
CourseSchedule#5#5                                  1 	(obj:0)
CourseSchedule#6#1                                  1 	(obj:0)
CourseSchedule#6#3                                  1 	(obj:0)
CourseSchedule#6#5                                  1 	(obj:0)
CourseSchedule#7#1                                  1 	(obj:0)
CourseSchedule#7#2                                  1 	(obj:0)
CourseSchedule#8#3                                  1 	(obj:0)
CourseSchedule#9#1                                  1 	(obj:0)
CourseSchedule#9#2                                  1 	(obj:0)
CourseSchedule#9#4                                  1 	(obj:0)
CourseSchedule#10#3                                 1 	(obj:0)
CourseSchedule#11#3                                 1 	(obj:0)
CourseSchedule#11#4                                 1 	(obj:0)
CourseSchedule#12#1                                 1 	(obj:0)
CourseSchedule#12#3                                 1 	(obj:0)
CourseSchedule#12#4                                 1 	(obj:0)
CourseSchedule#13#1                                 1 	(obj:0)
CourseSchedule#13#5                                 1 	(obj:0)
CourseSchedule#14#3                                 1 	(obj:0)
CourseSchedule#14#4                                 1 	(obj:0)
CourseSchedule#15#3                                 1 	(obj:0)
CourseSchedule#15#4                                 1 	(obj:0)
CourseSchedule#15#5                                 1 	(obj:0)
CourseSchedule#16#1                                 1 	(obj:0)
CourseSchedule#16#4                                 1 	(obj:0)
CourseSchedule#16#5                                 1 	(obj:0)
CourseSchedule#17#1                                 1 	(obj:0)
CourseSchedule#17#4                                 1 	(obj:0)
CourseSchedule#17#5                                 1 	(obj:0)
CourseSchedule#18#3                                 1 	(obj:0)
CourseSchedule#18#4                                 1 	(obj:0)
CourseSchedule#18#5                                 1 	(obj:0)
CourseSchedule#19#2                                 1 	(obj:0)
CourseSchedule#19#5                                 1 	(obj:0)
CourseSchedule#20#1                                 1 	(obj:0)
CourseSchedule#20#2                                 1 	(obj:0)
CourseSchedule#20#5                                 1 	(obj:0)
CourseSchedule#21#1                                 1 	(obj:0)
CourseSchedule#21#2                                 1 	(obj:0)
CourseSchedule#21#4                                 1 	(obj:0)
CourseSchedule#22#1                                 1 	(obj:0)
CourseSchedule#22#2                                 1 	(obj:0)
CourseSchedule#22#3                                 1 	(obj:0)
CourseSchedule#23#1                                 1 	(obj:0)
CourseSchedule#23#5                                 1 	(obj:0)
CourseSchedule#24#4                                 1 	(obj:0)
CourseSchedule#25#1                                 1 	(obj:0)
CourseSchedule#25#2                                 1 	(obj:0)
CourseSchedule#25#4                                 1 	(obj:0)
CourseSchedule#26#3                                 1 	(obj:0)
CourseSchedule#26#4                                 1 	(obj:0)
CourseSchedule#27#3                                 1 	(obj:0)
CourseSchedule#28#2                                 1 	(obj:0)
CourseSchedule#28#4                                 1 	(obj:0)
CourseSchedule#28#5                                 1 	(obj:0)
CourseSchedule#29#1                                 1 	(obj:0)
CourseSchedule#29#2                                 1 	(obj:0)
CourseSchedule#29#4                                 1 	(obj:0)
CourseSchedule#29#5                                 1 	(obj:0)
CourseSchedule#30#2                                 1 	(obj:0)
CourseSchedule#30#4                                 1 	(obj:0)
CourseSchedule#30#5                                 1 	(obj:0)
CourseSchedule#31#1                                 1 	(obj:0)
CourseSchedule#31#2                                 1 	(obj:0)
CourseSchedule#31#3                                 1 	(obj:0)
CourseSchedule#32#1                                 1 	(obj:0)

Statistics
==========

SCIP Status        : problem is solved [optimal solution found]
Solving Time       :     561.76
Original Problem   :
  Problem name     : random_3.ctt.t.zpl
  Variables        : 5242 (5210 binary, 32 integer, 0 implicit integer, 0 continuous)
  Constraints      : 3086 initial, 3086 maximal
Presolved Problem  :
  Problem name     : t_random_3.ctt.t.zpl
  Variables        : 4552 (4521 binary, 31 integer, 0 implicit integer, 0 continuous)
  Constraints      : 1839 initial, 1839 maximal
Presolvers         :       Time  FixedVars   AggrVars   ChgTypes  ChgBounds   AddHoles    DelCons   ChgSides   ChgCoefs
  trivial          :       0.00          0          0          0          0          0          0          0          0
  inttobinary      :       0.00          0          0          0          0          0          0          0          0
  dualfix          :       0.01          1          0          0          0          0          0          0          0
  implics          :       0.00          0          0          0          0          0          0          0          0
  probing          :       1.61          0          0          0          0          0          0          0          0
  knapsack         :       0.06          0          0          0          0          0          0          0          0
  setppc           :       0.03          0          0          0          0          0         25          0          0
  linear           :       0.35        689          0          0        689          0       1222        936          0
  logicor          :       0.00          0          0          0          0          0          0          0          0
  root node        :          -       2059          -          -       2090          -          -          -          -
Constraints        :     Number  #Separate #Propagate    #EnfoLP    #EnfoPS    Cutoffs    DomReds       Cuts      Conss   Children
  integral         :          0          0          0       1188          0          0          1          0          0       2372
  knapsack         :        250          6       6285          1          0          6       1831          0          0          0
  setppc           :       1248          6       6279          1          0          0      35380          0          0          0
  linear           :        195          6       4320          1          0          1       9479          0          0          0
  logicor          :        146          6       2124          1          0          1        812          0          0          0
Constraint Timings :  TotalTime   Separate  Propagate     EnfoLP     EnfoPS
  integral         :     256.28       0.00       0.00     256.28       0.00
  knapsack         :       0.24       0.04       0.20       0.00       0.00
  setppc           :       0.60       0.00       0.60       0.00       0.00
  linear           :       2.47       0.06       2.41       0.00       0.00
  logicor          :       0.03       0.00       0.03       0.00       0.00
Propagators        :       Time      Calls    Cutoffs    DomReds
  rootredcost      :       0.02          4          0       2090
  pseudoobj        :       0.05       5605          0          0
Conflict Analysis  :       Time      Calls    Success  Conflicts   Literals    Reconvs ReconvLits   LP Iters
  propagation      :       0.00          0          0          0        0.0          0        0.0          -
  infeasible LP    :       0.00          0          0          0        0.0          0        0.0          0
  bound exceed. LP :       0.00          0          0          0        0.0          0        0.0          0
  strong branching :       0.00          0          0          0        0.0          0        0.0          0
  pseudo solution  :       0.00          0          0          0        0.0          0        0.0          -
  applied globally :          -          -          -          0        0.0          -          -          -
  applied locally  :          -          -          -          0        0.0          -          -          -
Separators         :       Time      Calls    Cutoffs    DomReds       Cuts      Conss
  cut pool         :       0.00          5          -          -          0          -    (maximal pool size: 19)
  redcost          :       0.61        930          0       7388          0          0
  impliedbounds    :       0.00          6          0          0          0          0
  intobj           :       0.00          0          0          0          0          0
  gomory           :       0.08          6          0          0          0          0
  strongcg         :       0.11          6          0          0          0          0
  cmir             :       0.51          6          0          0          0          0
  clique           :       0.07          6          0          0         19          0
Pricers            :       Time      Calls       Vars
  problem variables:       0.00          0          0
Branching Rules    :       Time      Calls    Cutoffs    DomReds       Cuts      Conss   Children
  relpscost        :     256.27       1187          0          1          0          0       2372
  pscost           :       0.00          0          0          0          0          0          0
  inference        :       0.00          0          0          0          0          0          0
  mostinf          :       0.00          0          0          0          0          0          0
  leastinf         :       0.00          0          0          0          0          0          0
  fullstrong       :       0.00          0          0          0          0          0          0
  allfullstrong    :       0.00          0          0          0          0          0          0
Primal Heuristics  :       Time      Calls      Found
  LP solutions     :       0.01          -          1
  pseudo solutions :       0.00          -          0
  feaspump         :      10.37          1          0
  crossover        :       3.76          1          0
  rootsoldiving    :       0.98          2          1
  coefdiving       :       8.68          4          1
  pscostdiving     :      14.68          4          1
  fracdiving       :       5.05          4          0
  linesearchdiving :       3.43          4          0
  guideddiving     :       2.44          4          1
  objpscostdiving  :      16.28          3          2
  simplerounding   :       1.33       1215          0
  rounding         :       3.01       1215          0
  shifting         :       1.22        123          1
  fixandinfer      :       0.00          0          0
  intdiving        :       0.00          0          0
  octane           :       0.00          0          0
  rins             :       0.00          0          0
  localbranching   :       0.00          0          0
LP                 :       Time      Calls Iterations  Iter/call   Iter/sec
  primal LP        :       0.01          0          0       0.00       0.00
  dual LP          :     226.74       1231     238074     193.40    1049.99
  barrier LP       :       0.00          0          0       0.00          -
  diving/probing LP:      52.88       2825      52565      18.61     994.04
  strong branching :     256.07        769     232673     302.57     908.63
    (at root node) :          -         33      12329     373.61          -
  conflict analysis:       0.00          0          0       0.00          -
B&B Tree           :
  number of runs   :          1
  nodes            :       1229
  nodes (total)    :       1229
  nodes left       :          0
  max depth        :         81
  max depth (total):         81
  backtracks       :         34 (2.8%)
  delayed cutoffs  :          0
  repropagations   :          3 (0 domain reductions, 0 cutoffs)
  avg switch length:       2.45
  switching time   :       0.41
Solution           :
  Solutions found  :          8 (5 improvements)
  Primal Bound     : +6.39100000000000e+03   (in run 1, after 1229 nodes, 561.74 seconds, depth 71, found by <relaxation>)
  Dual Bound       : +6.39100000000000e+03
  Gap              :       0.00 %
  Root Dual Bound  : +6.39100000000000e+03
cp: copying multiple files, but last argument `/home/psxjm3/' is not a directory
Try `cp --help' for more information.
